Route #1: 19 97 27
Route #2: 39 10 18
Route #3: 14 49 6 37 87
Route #4: 24 95 73 53 33 32
Route #5: 30 85 11 79
Route #6: 82 60 59
Route #7: 83 51 81
Route #8: 68 90 84 66
Route #9: 38 47 26 48 96 64 34
Route #10: 71 62 99 98 89
Route #11: 1 70 54
Route #12: 40 88 67 44
Route #13: 28 42 78 65 25
Route #14: 21 56 94 80
Route #15: 58 12 5
Route #16: 92 9 86
Route #17: 63 77 3
Route #18: 93 75
Route #19: 23 61 100
Route #20: 74 13 4
Route #21: 31 46 35
Route #22: 50 91 52
Route #23: 69 16 55 76
Route #24: 8 17
Route #25: 15 22 41 20
Route #26: 57 72 36 29 43 45 2 7
Cost 27591.0000
Time 16.0010